peakDumbCharging = 25900; 
Machine = anon_enum(16); 
machineSpeed = [3700,3700,3700,3700,3700,3700,3700,3700,3700,3700,3700,3700,3700,3700,3700,3700]; 
machineLoad = [3700,3700,3700,3700,3700,3700,3700,3700,3700,3700,3700,3700,3700,3700,3700,3700]; 
Car = anon_enum(22); 
demandCar = [3400,12200,6240,8120,11160,11280,7520,7720,11720,1720,6840,34360,2240,14240,26680,10520,9200,20360,6920,10200,25600,12480]; 
arrivalCar = [79,77,75,70,70,68,68,68,67,66,65,61,60,56,56,55,50,48,46,42,39,35]; 
departureCar = [81,82,79,73,74,73,73,71,74,67,70,73,62,62,66,71,53,55,50,48,50,40]; 
